Gurobi Basics/case_study_problem.sol
# Solution for model basic_model
# Objective value = 467000
X1 3000
X2 0
Y1 500
Y2 1500
Z1 1000
Z2 0
